Comps = {frontend0, frontend1, frontend2, backend0, backend1, database0, database1};
mustComps = {frontend0, frontend1, frontend2};
Flavs = {tiny, medium, large};
Nodes = {n1, n2, n3};
CRes = {CPU, RAM, storage, bwIn, bwOut};
NRes = {ssl, fwall, encr, avail, latency};
Flav = [{medium, large}, {medium, large}, {medium, large}, {tiny, medium, large}, {tiny, medium, large}, {large}, {large}];
Uses = [{backend0}, {backend0}, {backend1}, {backend0}, {backend0}, {backend1}, {}, {}, {database0}, {database1}, {database0}, {database1}, {}, {}];
MAX_BOUND = 1000000;

worstBounds = [0, 0, 0, 0, 0, 0, 0, 0, 0, MAX_BOUND];
bestBounds = [MAX_BOUND - i | i in worstBounds];

comReq = array2d(CompFlavs, Res, [
  4, 404, 252, 505, 520, 1, 1, 0, 97, MAX_BOUND,
  8, 315, 219, 993, 381, 0, 0, 0, 95, MAX_BOUND,
  2, 499, 422, 472, 762, 1, 1, 0, 95, MAX_BOUND,
  2, 240, 387, 684, 748, 1, 1, 0, 96, MAX_BOUND,
  2, 396, 446, 931, 390, 0, 0, 0, 95, MAX_BOUND,
  8, 455, 395, 762, 904, 1, 0, 0, 96, MAX_BOUND,
  2, 247, 464, 207, 428, 0, 0, 1, 95, MAX_BOUND,
  2, 215, 281, 726, 588, 0, 1, 1, 96, MAX_BOUND,
  8, 450, 295, 303, 917, 1, 0, 1, 95, MAX_BOUND,
  2, 366, 372, 503, 930, 1, 0, 1, 97, MAX_BOUND,
  2, 268, 498, 601, 208, 1, 1, 1, 95, MAX_BOUND,
  4, 332, 415, 932, 908, 1, 0, 1, 97, MAX_BOUND,
  2, 277, 436, 512, 545, 1, 1, 1, 95, MAX_BOUND,
  2, 238, 273, 225, 832, 1, 0, 0, 97, MAX_BOUND,
]);

nodeCap = array2d(Nodes0, Res, [bestBounds[r] | r in Res] ++ [
  32, 29886, 622721, 21452, 23207, 0, 1, 1, 99, 0,
  16, 33802, 312953, 15068, 10197, 1, 0, 1, 99, 0,
  32, 41525, 645264, 11000, 14996, 1, 1, 1, 98, 0,
]);

cost = array2d(Nodes0, Res, [
  0, 0, 0, 0, 0, 0, 0, 0, 0, 0, % no node
  19, 8, 16, 0, 0, 0, 0, 0, 0, 0,
  19, 5, 15, 0, 0, 0, 0, 0, 0, 0,
  19, 8, 23, 0, 0, 0, 0, 0, 0, 0,
]);

cons = array2d(Nodes0, Res, [
  0, 0, 0, 0, 0, 0, 0, 0, 0, 0, % no node
  49, 4, 16, 0, 0, 0, 0, 0, 0, 0,
  2, 44, 37, 0, 0, 0, 0, 0, 0, 0,
  44, 9, 22, 0, 0, 0, 0, 0, 0, 0,
]);

costWeight = 0;
consWeight = 1;

costBudget = 43372;
consBudget = 66084;

depReq = array3d(Comps, Comps, Res, [
  if c1 = frontend2 /\ c2 = backend0 /\ r = N(avail) then
    95
  elseif c1 = frontend0 /\ c2 = backend0 /\ r = N(avail) then
    95
  elseif c1 = frontend2 /\ c2 = backend1 /\ r = N(avail) then
    96
  elseif c1 = frontend0 /\ c2 = backend1 /\ r = N(avail) then
    95
  elseif c1 = frontend1 /\ c2 = backend1 /\ r = N(avail) then
    96
  elseif c1 = frontend1 /\ c2 = backend0 /\ r = N(avail) then
    95
  else
    worstBounds[r]
  endif | c1 in Comps, c2 in Comps, r in Res]);

linkCap = array3d(Nodes0, Nodes0, Res, [
  if ni = 0 \/ nj = 0 then
    bestBounds[r]
  elseif ni = nj /\ r = N(avail) then
    nodeCap[ni,r]
  elseif {ni, nj} = {n1, n3} /\ r = N(avail) then
    99
  elseif {ni, nj} = {n1, n2} /\ r = N(avail) then
    98
  elseif {ni, nj} = {n2, n3} /\ r = N(avail) then
    98
  else
    worstBounds[r]
  endif | ni in Nodes0, nj in Nodes0, r in Res]);

imp = array2d(Comps, Flavs, [
  3, 5, 8,
  2, 5, 8,
  1, 5, 6,
  5, 8, 10,
  2, 8, 10,
  1, 6, 9,
  5, 6, 7,
]);

